
Gurobi 13.0.2 (win64) logging started Thu Jul 23 17:10:24 2026

Set parameter LogFile to value "E:\codes\ExactEBRP\results\gf_gurobi_performance_recovery_round29\runs\stage2__moderate_seed5302__c4_candidate__300s\external\native_logs\L0.0.1.0.1.1.1.1_lp.gurobi.log"
Gurobi Optimizer version 13.0.2 build v13.0.2rc1 (win64 - Windows 10.0 (19045.2))

CPU model: 12th Gen Intel(R) Core(TM) i7-12700KF, instruction set [SSE2|AVX|AVX2]
Thread count: 12 physical cores, 20 logical processors, using up to 1 threads

Non-default parameters:
TimeLimit  263.967515
MIPGap  0
MIPGapAbs  0
LogToConsole  0
Threads  1

Optimize a model with 11931 rows, 3382 columns and 67404 nonzeros (Min)
Model fingerprint: 0x1ad8c541
Model has 21 linear objective coefficients
Coefficient statistics:
  Matrix range     [9e-03, 2e+04]
  Objective range  [9e-03, 1e+00]
  Bounds range     [1e-02, 2e+02]
  RHS range        [1e-02, 5e+04]

Presolve removed 448 rows and 102 columns
Presolve time: 0.04s
Presolved: 11483 rows, 3469 columns, 66347 nonzeros

Iteration    Objective       Primal Inf.    Dual Inf.      Time
       0    1.0068428e-02   1.920711e+02   0.000000e+00      0s

Extra simplex iterations after uncrush: 1
    3917    1.6132430e-02   0.000000e+00   0.000000e+00      0s

Solved in 3917 iterations and 0.28 seconds (0.82 work units)
Optimal objective  1.613243034e-02

User-callback calls 4065, time in user-callback 0.00 sec
